87 87
10 59
29 49
23 27
31 73
3 8
4 41
21 9
7 84
22 30
19 63
21 21
18 85
40 38
41 71
34 43
38 78
10 16
9 22
16 3
11 18
5 58
23 55
1 66
18 25
3 83
9 60
27 82
12 69
14 87
30 70
31 11
13 5
11 1
35 23
7 64
8 62
26 28
40 32
25 81
30 40
15 39
32 37
15 2
4 29
25 33
13 57
28 72
42 6
19 4
6 14
39 79
8 20
34 52
24 67
36 19
5 36
1 76
12 50
41 51
1 12
2 54
37 74
29 15
27 75
43 80
33 61
38 86
26 46
33 7
37 45
42 42
28 24
24 35
22 47
35 68
14 26
32 56
2 53
20 17
20 77
17 48
16 13
43 31
36 65
39 10
17 44
6 34
